c Sudoku solution
p cnf 729 0
179 0
212 0
231 0
256 0
277 0
337 0
342 0
386 0
395 0
426 0
468 0
489 0
532 0
543 0
584 0
633 0
664 0
678 0
692 0
452 0
646 0
182 0
721 0
762 0
836 0
966 0
116 0
853 0
885 0
939 0
947 0
954 0
528 0
417 0
434 0
827 0
922 0
872 0
915 0
713 0
625 0
135 0
318 0
814 0
738 0
848 0
861 0
787 0
899 0
158 0
167 0
681 0
493 0
475 0
576 0
597 0
441 0
511 0
619 0
657 0
144 0
351 0
191 0
123 0
971 0
373 0
288 0
294 0
263 0
369 0
245 0
229 0
324 0
749 0
755 0
559 0
565 0
774 0
796 0
983 0
998 0
